
Gurobi 8.1.1 (mac64, Python) logging started Sat Sep  7 21:15:40 2019

Academic license - for non-commercial use only

Gurobi 8.1.1 (mac64, Python) logging started Sat Sep  7 21:16:52 2019

Academic license - for non-commercial use only

Gurobi 8.1.1 (mac64, Python) logging started Sat Sep  7 21:20:42 2019

Academic license - for non-commercial use only

Gurobi 8.1.1 (mac64, Python) logging started Sat Sep  7 21:27:52 2019

Academic license - for non-commercial use only

Gurobi 8.1.1 (mac64, Python) logging started Sat Sep  7 21:29:09 2019

Academic license - for non-commercial use only

Gurobi 8.1.1 (mac64, Python) logging started Sat Sep  7 21:29:29 2019

Academic license - for non-commercial use only

Gurobi 8.1.1 (mac64, Python) logging started Sat Sep  7 21:30:10 2019

Academic license - for non-commercial use only

Gurobi 8.1.1 (mac64, Python) logging started Sat Sep  7 21:31:21 2019

Academic license - for non-commercial use only

Gurobi 8.1.1 (mac64, Python) logging started Sat Sep  7 21:31:45 2019

Academic license - for non-commercial use only

Gurobi 8.1.1 (mac64, Python) logging started Sat Sep  7 21:32:44 2019

Academic license - for non-commercial use only

Gurobi 8.1.1 (mac64, Python) logging started Sat Sep  7 21:33:25 2019

Academic license - for non-commercial use only

Gurobi 8.1.1 (mac64, Python) logging started Sat Sep  7 21:33:47 2019

Academic license - for non-commercial use only

Gurobi 8.1.1 (mac64, Python) logging started Sat Sep  7 21:36:31 2019

Academic license - for non-commercial use only

Gurobi 8.1.1 (mac64, Python) logging started Sat Sep  7 21:46:48 2019

Academic license - for non-commercial use only

Gurobi 8.1.1 (mac64, Python) logging started Sat Sep  7 21:50:44 2019

Academic license - for non-commercial use only

Gurobi 8.1.1 (mac64, Python) logging started Sat Sep  7 21:51:05 2019

Academic license - for non-commercial use only

Gurobi 8.1.1 (mac64, Python) logging started Sat Sep  7 21:51:21 2019

Academic license - for non-commercial use only

Gurobi 8.1.1 (mac64, Python) logging started Sat Sep  7 21:52:07 2019

Academic license - for non-commercial use only

Gurobi 8.1.1 (mac64, Python) logging started Sat Sep  7 21:55:06 2019

Academic license - for non-commercial use only

Gurobi 8.1.1 (mac64, Python) logging started Sat Sep  7 21:56:10 2019

Academic license - for non-commercial use only

Gurobi 8.1.1 (mac64, Python) logging started Sat Sep  7 21:56:26 2019

Academic license - for non-commercial use only

Gurobi 8.1.1 (mac64, Python) logging started Sat Sep  7 21:59:32 2019

Academic license - for non-commercial use only

Gurobi 8.1.1 (mac64, Python) logging started Sat Sep  7 22:00:43 2019

Academic license - for non-commercial use only

Gurobi 8.1.1 (mac64, Python) logging started Sat Sep  7 22:08:16 2019

Academic license - for non-commercial use only

Gurobi 8.1.1 (mac64, Python) logging started Sat Sep  7 22:09:13 2019

Academic license - for non-commercial use only

Gurobi 8.1.1 (mac64, Python) logging started Sat Sep  7 22:09:59 2019

Academic license - for non-commercial use only

Gurobi 8.1.1 (mac64, Python) logging started Sat Sep  7 22:10:58 2019

Academic license - for non-commercial use only

Gurobi 8.1.1 (mac64, Python) logging started Sat Sep  7 22:13:25 2019

Academic license - for non-commercial use only

Gurobi 8.1.1 (mac64, Python) logging started Sat Sep  7 22:15:04 2019

Academic license - for non-commercial use only

Gurobi 8.1.1 (mac64, Python) logging started Sat Sep  7 22:17:33 2019

Academic license - for non-commercial use only

Gurobi 8.1.1 (mac64, Python) logging started Sat Sep  7 22:18:40 2019

Academic license - for non-commercial use only

Gurobi 8.1.1 (mac64, Python) logging started Sat Sep  7 22:19:05 2019

Academic license - for non-commercial use only

Gurobi 8.1.1 (mac64, Python) logging started Sat Sep  7 22:19:20 2019

Academic license - for non-commercial use only

Gurobi 8.1.1 (mac64, Python) logging started Sat Sep  7 22:19:44 2019

Academic license - for non-commercial use only

Gurobi 8.1.1 (mac64, Python) logging started Sat Sep  7 22:19:56 2019

Academic license - for non-commercial use only

Gurobi 8.1.1 (mac64, Python) logging started Sat Sep  7 22:20:10 2019

Academic license - for non-commercial use only

Gurobi 8.1.1 (mac64, Python) logging started Sat Sep  7 22:21:53 2019

Academic license - for non-commercial use only

Gurobi 8.1.1 (mac64, Python) logging started Sat Sep  7 22:22:14 2019

Academic license - for non-commercial use only

Gurobi 8.1.1 (mac64, Python) logging started Sat Sep  7 22:23:58 2019

Academic license - for non-commercial use only

Gurobi 8.1.1 (mac64, Python) logging started Sat Sep  7 22:24:13 2019

Academic license - for non-commercial use only

Gurobi 8.1.1 (mac64, Python) logging started Sat Sep  7 22:39:34 2019

Academic license - for non-commercial use only

Gurobi 8.1.1 (mac64, Python) logging started Sat Sep  7 22:40:00 2019

Academic license - for non-commercial use only

Gurobi 8.1.1 (mac64, Python) logging started Sat Sep  7 22:41:02 2019

Academic license - for non-commercial use only

Gurobi 8.1.1 (mac64, Python) logging started Sat Sep  7 22:41:12 2019

Academic license - for non-commercial use only

Gurobi 8.1.1 (mac64, Python) logging started Sat Sep  7 22:42:20 2019

Academic license - for non-commercial use only

Gurobi 8.1.1 (mac64, Python) logging started Sat Sep  7 22:43:48 2019

Academic license - for non-commercial use only

Gurobi 8.1.1 (mac64, Python) logging started Sat Sep  7 22:44:27 2019

Academic license - for non-commercial use only

Gurobi 8.1.1 (mac64, Python) logging started Sat Sep  7 22:44:53 2019

Academic license - for non-commercial use only

Gurobi 8.1.1 (mac64, Python) logging started Sat Sep  7 22:47:22 2019

Academic license - for non-commercial use only

Gurobi 8.1.1 (mac64, Python) logging started Sat Sep  7 22:47:52 2019

Academic license - for non-commercial use only

Gurobi 8.1.1 (mac64, Python) logging started Sat Sep  7 22:48:07 2019

Academic license - for non-commercial use only

Gurobi 8.1.1 (mac64, Python) logging started Sat Sep  7 22:48:54 2019

Academic license - for non-commercial use only

Gurobi 8.1.1 (mac64, Python) logging started Sat Sep  7 22:49:23 2019

Academic license - for non-commercial use only

Gurobi 8.1.1 (mac64, Python) logging started Sat Sep  7 22:49:59 2019

Academic license - for non-commercial use only

Gurobi 8.1.1 (mac64, Python) logging started Sat Sep  7 22:52:12 2019

Academic license - for non-commercial use only

Gurobi 8.1.1 (mac64, Python) logging started Sat Sep  7 22:54:23 2019

Academic license - for non-commercial use only

Gurobi 8.1.1 (mac64, Python) logging started Sat Sep  7 22:57:54 2019

Academic license - for non-commercial use only

Gurobi 8.1.1 (mac64, Python) logging started Sat Sep  7 23:25:52 2019

Academic license - for non-commercial use only

Gurobi 8.1.1 (mac64, Python) logging started Sat Sep  7 23:26:38 2019

Academic license - for non-commercial use only

Gurobi 8.1.1 (mac64, Python) logging started Sat Sep  7 23:27:08 2019

Academic license - for non-commercial use only

Gurobi 8.1.1 (mac64, Python) logging started Sat Sep  7 23:29:11 2019

Academic license - for non-commercial use only

Gurobi 8.1.1 (mac64, Python) logging started Sat Sep  7 23:29:31 2019

Academic license - for non-commercial use only

Gurobi 8.1.1 (mac64, Python) logging started Sat Sep  7 23:30:47 2019

Academic license - for non-commercial use only

Gurobi 8.1.1 (mac64, Python) logging started Sat Sep  7 23:43:01 2019

Academic license - for non-commercial use only

Gurobi 8.1.1 (mac64, Python) logging started Sat Sep  7 23:43:45 2019

Academic license - for non-commercial use only

Gurobi 8.1.1 (mac64, Python) logging started Sun Sep  8 00:02:42 2019

Academic license - for non-commercial use only

Gurobi 8.1.1 (mac64, Python) logging started Sun Sep  8 00:03:51 2019

Academic license - for non-commercial use only

Gurobi 8.1.1 (mac64, Python) logging started Sun Sep  8 00:04:19 2019

Academic license - for non-commercial use only

Gurobi 8.1.1 (mac64, Python) logging started Sun Sep  8 00:04:38 2019

Academic license - for non-commercial use only

Gurobi 8.1.1 (mac64, Python) logging started Sun Sep  8 00:05:32 2019

Academic license - for non-commercial use only

Gurobi 8.1.1 (mac64, Python) logging started Sun Sep  8 00:06:00 2019

Academic license - for non-commercial use only

Gurobi 8.1.1 (mac64, Python) logging started Sun Sep  8 00:07:48 2019

Academic license - for non-commercial use only

Gurobi 8.1.1 (mac64, Python) logging started Sun Sep  8 00:10:34 2019

Academic license - for non-commercial use only

Gurobi 8.1.1 (mac64, Python) logging started Sun Sep  8 09:44:44 2019

Academic license - for non-commercial use only
Optimize a model with 2 rows, 3 columns and 5 nonzeros
Model has 5 quadratic objective terms
Coefficient statistics:
  Matrix range     [1e+00, 3e+00]
  Objective range  [2e+00, 2e+00]
  QObjective range [2e+00, 2e+00]
  Bounds range     [1e+00, 1e+00]
  RHS range        [1e+00, 4e+00]
Presolve time: 0.02s
Presolved: 2 rows, 3 columns, 5 nonzeros
Presolved model has 5 quadratic objective terms
Ordering time: 0.00s

Barrier statistics:
 Free vars  : 2
 AA' NZ     : 6.000e+00
 Factor NZ  : 1.000e+01
 Factor Ops : 3.000e+01 (less than 1 second per iteration)
 Threads    : 1

                  Objective                Residual
Iter       Primal          Dual         Primal    Dual     Compl     Time
   0   1.69015022e+05 -1.71012100e+05  1.50e+03 3.33e+02  1.00e+06     0s
   1   3.60255402e+04 -3.91306233e+04  2.28e+02 3.82e+01  1.20e+05     0s
   2   4.14685168e+00 -4.40925173e+03  1.80e+00 4.00e-01  1.83e+03     0s
   3   2.81937163e+00 -1.92736174e+03  1.80e-06 4.00e-07  2.41e+02     0s
   4   2.81628339e+00 -1.81287557e-01  8.60e-10 1.90e-10  3.75e-01     0s
   5   2.26977145e+00  2.06670895e+00  6.89e-12 1.53e-12  2.54e-02     0s
   6   2.11498124e+00  2.11029644e+00  2.22e-16 5.55e-16  5.86e-04     0s
   7   2.11111498e+00  2.11111030e+00  2.22e-16 2.22e-16  5.85e-07     0s
   8   2.11111111e+00  2.11111111e+00  2.22e-16 0.00e+00  5.86e-10     0s

Barrier solved model in 8 iterations and 0.02 seconds
Optimal objective 2.11111111e+00


Gurobi 8.1.1 (mac64, Python) logging started Sun Sep  8 09:46:19 2019

Academic license - for non-commercial use only

Gurobi 8.1.1 (mac64, Python) logging started Sun Sep  8 09:46:43 2019

Academic license - for non-commercial use only

Gurobi 8.1.1 (mac64, Python) logging started Sun Sep  8 09:47:19 2019

Academic license - for non-commercial use only

Gurobi 8.1.1 (mac64, Python) logging started Sun Sep  8 09:47:38 2019

Academic license - for non-commercial use only

Gurobi 8.1.1 (mac64, Python) logging started Sun Sep  8 09:54:02 2019

Academic license - for non-commercial use only

Gurobi 8.1.1 (mac64, Python) logging started Sun Sep  8 09:54:50 2019

Academic license - for non-commercial use only

Gurobi 8.1.1 (mac64, Python) logging started Sun Sep  8 10:08:59 2019

Academic license - for non-commercial use only

Gurobi 8.1.1 (mac64, Python) logging started Sun Sep  8 10:09:31 2019

Academic license - for non-commercial use only

Gurobi 8.1.1 (mac64, Python) logging started Sun Sep  8 10:10:36 2019

Academic license - for non-commercial use only

Gurobi 8.1.1 (mac64, Python) logging started Sun Sep  8 10:11:45 2019

Academic license - for non-commercial use only

Gurobi 8.1.1 (mac64, Python) logging started Sun Sep  8 10:12:07 2019

Academic license - for non-commercial use only
Optimize a model with 2 rows, 3 columns and 5 nonzeros
Model has 6 quadratic objective terms
Coefficient statistics:
  Matrix range     [1e+00, 3e+00]
  Objective range  [2e+02, 2e+02]
  QObjective range [2e+00, 4e+00]
  Bounds range     [1e+00, 1e+00]
  RHS range        [1e+00, 4e+00]
Presolve time: 0.02s
Presolved: 2 rows, 3 columns, 5 nonzeros
Presolved model has 6 quadratic objective terms
Ordering time: 0.00s

Barrier statistics:
 Free vars  : 1
 AA' NZ     : 3.000e+00
 Factor NZ  : 6.000e+00
 Factor Ops : 1.400e+01 (less than 1 second per iteration)
 Threads    : 1

                  Objective                Residual
Iter       Primal          Dual         Primal    Dual     Compl     Time
   0  -5.90000000e+05  7.80000000e+03  3.00e+03 2.00e+02  9.64e+05     0s
   1   1.12206212e+05 -2.00691964e+05  8.01e+01 1.10e-08  7.17e+04     0s
   2   1.53101812e+04 -4.16199319e+04  8.01e-05 1.14e-13  8.13e+03     0s
   3   6.98322801e+02 -6.28109684e+03  8.01e-11 2.84e-14  9.97e+02     0s
   4   2.25004034e+00 -3.08253042e+02  5.68e-14 2.84e-14  4.44e+01     0s
   5   2.25016811e-06 -3.06256913e-01  0.00e+00 2.84e-14  4.38e-02     0s
   6   5.45696821e-12 -3.06551608e-04  1.42e-14 0.00e+00  4.38e-05     0s
   7   1.81898940e-12 -3.06859874e-07  0.00e+00 5.68e-14  4.38e-08     0s
   8  -5.45696821e-12 -3.12866177e-10  1.42e-14 5.68e-14  4.41e-11     0s

Barrier solved model in 8 iterations and 0.03 seconds
Optimal objective -5.45696821e-12


Gurobi 8.1.1 (mac64, Python) logging started Sun Sep  8 10:12:30 2019

Academic license - for non-commercial use only

Gurobi 8.1.1 (mac64, Python) logging started Sun Sep  8 10:13:35 2019

Academic license - for non-commercial use only

Gurobi 8.1.1 (mac64, Python) logging started Sun Sep  8 10:14:45 2019

Academic license - for non-commercial use only
Optimize a model with 2 rows, 3 columns and 5 nonzeros
Model has 6 quadratic objective terms
Coefficient statistics:
  Matrix range     [1e+00, 3e+00]
  Objective range  [2e+02, 2e+02]
  QObjective range [2e+00, 4e+00]
  Bounds range     [1e+00, 1e+00]
  RHS range        [1e+00, 4e+00]
Presolve time: 0.00s
Presolved: 2 rows, 3 columns, 5 nonzeros
Presolved model has 6 quadratic objective terms
Ordering time: 0.00s

Barrier statistics:
 Free vars  : 1
 AA' NZ     : 3.000e+00
 Factor NZ  : 6.000e+00
 Factor Ops : 1.400e+01 (less than 1 second per iteration)
 Threads    : 1

                  Objective                Residual
Iter       Primal          Dual         Primal    Dual     Compl     Time
   0  -5.90000000e+05  7.80000000e+03  3.00e+03 2.00e+02  9.64e+05     0s
   1   1.12206212e+05 -2.00691964e+05  8.01e+01 1.10e-08  7.17e+04     0s
   2   1.53101812e+04 -4.16199319e+04  8.01e-05 1.14e-13  8.13e+03     0s
   3   6.98322801e+02 -6.28109684e+03  8.01e-11 2.84e-14  9.97e+02     0s
   4   2.25004034e+00 -3.08253042e+02  5.68e-14 2.84e-14  4.44e+01     0s
   5   2.25016811e-06 -3.06256913e-01  0.00e+00 2.84e-14  4.38e-02     0s
   6   5.45696821e-12 -3.06551608e-04  1.42e-14 0.00e+00  4.38e-05     0s
   7   1.81898940e-12 -3.06859874e-07  0.00e+00 5.68e-14  4.38e-08     0s
   8  -5.45696821e-12 -3.12866177e-10  1.42e-14 5.68e-14  4.41e-11     0s

Barrier solved model in 8 iterations and 0.00 seconds
Optimal objective -5.45696821e-12


Gurobi 8.1.1 (mac64, Python) logging started Sun Sep  8 16:26:57 2019

Academic license - for non-commercial use only

Gurobi 8.1.1 (mac64, Python) logging started Sun Sep  8 16:37:19 2019

Academic license - for non-commercial use only

Gurobi 8.1.1 (mac64, Python) logging started Sun Sep  8 16:42:11 2019

Academic license - for non-commercial use only

Gurobi 8.1.1 (mac64, Python) logging started Sun Sep  8 16:44:46 2019

Academic license - for non-commercial use only

Gurobi 8.1.1 (mac64, Python) logging started Sun Sep  8 16:48:57 2019

Academic license - for non-commercial use only

Gurobi 8.1.1 (mac64, Python) logging started Sun Sep  8 16:52:37 2019

Academic license - for non-commercial use only

Gurobi 8.1.1 (mac64, Python) logging started Sun Sep  8 16:53:43 2019

Academic license - for non-commercial use only

Gurobi 8.1.1 (mac64, Python) logging started Sun Sep  8 16:55:01 2019

Academic license - for non-commercial use only

Gurobi 8.1.1 (mac64, Python) logging started Sun Sep  8 17:03:50 2019

Academic license - for non-commercial use only

Gurobi 8.1.1 (mac64, Python) logging started Sun Sep  8 17:04:28 2019

Academic license - for non-commercial use only

Gurobi 8.1.1 (mac64, Python) logging started Sun Sep  8 17:07:03 2019

Academic license - for non-commercial use only
Optimize a model with 618 rows, 4800 columns and 3397 nonzeros
Model has 9900 quadratic objective terms
Variable types: 1800 continuous, 3000 integer (0 binary)
Coefficient statistics:
  Matrix range     [1e+00, 1e+00]
  Objective range  [6e+00, 6e+02]
  QObjective range [2e+00, 4e+00]
  Bounds range     [0e+00, 0e+00]
  RHS range        [0e+00, 0e+00]
Found heuristic solution: objective 692024.39462
Presolve removed 221 rows and 3409 columns
Presolve time: 0.03s
Presolved: 397 rows, 1391 columns, 1534 nonzeros
Presolved model has 3440 quadratic objective terms
Variable types: 236 continuous, 1155 integer (0 binary)

Root relaxation: objective 0.000000e+00, 303 iterations, 0.01 seconds

    Nodes    |    Current Node    |     Objective Bounds      |     Work
 Expl Unexpl |  Obj  Depth IntInf | Incumbent    BestBd   Gap | It/Node Time

     0     0    0.00000    0    7 692024.395    0.00000   100%     -    0s
H    0     0                       0.3674371    0.00000   100%     -    0s
     0     0    0.00000    0    5    0.36744    0.00000   100%     -    0s
     0     0    0.00000    0    5    0.36744    0.00000   100%     -    0s
H    0     0                       0.2346258    0.00000   100%     -    0s
H    0     0                       0.0000000    0.00000      -     -    0s
     0     0          -    0         0.00000    0.00000      -     -    0s

Explored 1 nodes (309 simplex iterations) in 0.16 seconds
Thread count was 4 (of 4 available processors)

Solution count 4: 1.16415e-10 0.234626 0.367437 692024 

Optimal solution found (tolerance 1.00e-04)
Best objective 1.164153218269e-10, best bound 1.164153218269e-10, gap 0.0000%

Gurobi 8.1.1 (mac64, Python) logging started Mon Sep  9 14:25:22 2019

Academic license - for non-commercial use only
Optimize a model with 1260 rows, 4800 columns and 8334 nonzeros
Model has 9900 quadratic objective terms
Variable types: 1800 continuous, 3000 integer (0 binary)
Coefficient statistics:
  Matrix range     [1e+00, 1e+00]
  Objective range  [6e+00, 6e+02]
  QObjective range [2e+00, 4e+00]
  Bounds range     [0e+00, 0e+00]
  RHS range        [0e+00, 0e+00]
Found heuristic solution: objective 692024.39462
Presolve removed 188 rows and 2120 columns
Presolve time: 0.02s
Presolved: 1072 rows, 2680 columns, 5321 nonzeros
Presolved model has 7421 quadratic objective terms
Variable types: 119 continuous, 2561 integer (0 binary)

Root relaxation: objective 1.405659e+05, 1283 iterations, 0.02 seconds

    Nodes    |    Current Node    |     Objective Bounds      |     Work
 Expl Unexpl |  Obj  Depth IntInf | Incumbent    BestBd   Gap | It/Node Time

     0     0 140565.946    0  150 692024.395 140565.946  79.7%     -    0s
H    0     0                    140811.07636 140565.946  0.17%     -    0s
H    0     0                    140586.99375 140565.946  0.01%     -    0s
H    0     0                    140578.51368 140565.946  0.01%     -    0s

Explored 1 nodes (1283 simplex iterations) in 0.08 seconds
Thread count was 4 (of 4 available processors)

Solution count 4: 140579 140587 140811 692024 

Optimal solution found (tolerance 1.00e-04)
Best objective 1.405785136773e+05, best bound 1.405659459499e+05, gap 0.0089%

Gurobi 8.1.1 (mac64, Python) logging started Mon Sep  9 14:33:50 2019

Academic license - for non-commercial use only
Optimize a model with 1260 rows, 4800 columns and 8334 nonzeros
Model has 9900 quadratic objective terms
Variable types: 1800 continuous, 3000 integer (0 binary)
Coefficient statistics:
  Matrix range     [1e+00, 1e+00]
  Objective range  [6e+00, 6e+02]
  QObjective range [2e+00, 4e+00]
  Bounds range     [0e+00, 0e+00]
  RHS range        [0e+00, 0e+00]
Found heuristic solution: objective 692024.39462
Presolve removed 188 rows and 2120 columns
Presolve time: 0.01s
Presolved: 1072 rows, 2680 columns, 5321 nonzeros
Presolved model has 7421 quadratic objective terms
Variable types: 119 continuous, 2561 integer (0 binary)

Root relaxation: objective 1.405659e+05, 1283 iterations, 0.02 seconds

    Nodes    |    Current Node    |     Objective Bounds      |     Work
 Expl Unexpl |  Obj  Depth IntInf | Incumbent    BestBd   Gap | It/Node Time

     0     0 140565.946    0  150 692024.395 140565.946  79.7%     -    0s
H    0     0                    140811.07636 140565.946  0.17%     -    0s
H    0     0                    140586.99375 140565.946  0.01%     -    0s
H    0     0                    140578.51368 140565.946  0.01%     -    0s

Explored 1 nodes (1283 simplex iterations) in 0.05 seconds
Thread count was 4 (of 4 available processors)

Solution count 4: 140579 140587 140811 692024 

Optimal solution found (tolerance 1.00e-04)
Best objective 1.405785136773e+05, best bound 1.405659459499e+05, gap 0.0089%

Gurobi 8.1.1 (mac64, Python) logging started Mon Sep  9 14:37:47 2019

Academic license - for non-commercial use only
Optimize a model with 1260 rows, 4800 columns and 8334 nonzeros
Model has 9900 quadratic objective terms
Variable types: 1800 continuous, 3000 integer (0 binary)
Coefficient statistics:
  Matrix range     [1e+00, 1e+00]
  Objective range  [6e+00, 6e+02]
  QObjective range [2e+00, 4e+00]
  Bounds range     [0e+00, 0e+00]
  RHS range        [0e+00, 0e+00]
Found heuristic solution: objective 692024.39462
Presolve removed 188 rows and 2120 columns
Presolve time: 0.01s
Presolved: 1072 rows, 2680 columns, 5321 nonzeros
Presolved model has 7421 quadratic objective terms
Variable types: 119 continuous, 2561 integer (0 binary)

Root relaxation: objective 1.405659e+05, 1283 iterations, 0.02 seconds

    Nodes    |    Current Node    |     Objective Bounds      |     Work
 Expl Unexpl |  Obj  Depth IntInf | Incumbent    BestBd   Gap | It/Node Time

     0     0 140565.946    0  150 692024.395 140565.946  79.7%     -    0s
H    0     0                    140811.07636 140565.946  0.17%     -    0s
H    0     0                    140586.99375 140565.946  0.01%     -    0s
H    0     0                    140578.51368 140565.946  0.01%     -    0s

Explored 1 nodes (1283 simplex iterations) in 0.05 seconds
Thread count was 4 (of 4 available processors)

Solution count 4: 140579 140587 140811 692024 

Optimal solution found (tolerance 1.00e-04)
Best objective 1.405785136773e+05, best bound 1.405659459499e+05, gap 0.0089%

Gurobi 8.1.1 (mac64, Python) logging started Mon Sep  9 14:41:34 2019

Academic license - for non-commercial use only
Optimize a model with 1260 rows, 4800 columns and 8334 nonzeros
Model has 9900 quadratic objective terms
Variable types: 1800 continuous, 3000 integer (0 binary)
Coefficient statistics:
  Matrix range     [1e+00, 1e+00]
  Objective range  [6e+00, 6e+02]
  QObjective range [2e+00, 4e+00]
  Bounds range     [0e+00, 0e+00]
  RHS range        [0e+00, 0e+00]
Found heuristic solution: objective 692024.39462
Presolve removed 188 rows and 2120 columns
Presolve time: 0.01s
Presolved: 1072 rows, 2680 columns, 5321 nonzeros
Presolved model has 7421 quadratic objective terms
Variable types: 119 continuous, 2561 integer (0 binary)

Root relaxation: objective 1.405659e+05, 1283 iterations, 0.02 seconds

    Nodes    |    Current Node    |     Objective Bounds      |     Work
 Expl Unexpl |  Obj  Depth IntInf | Incumbent    BestBd   Gap | It/Node Time

     0     0 140565.946    0  150 692024.395 140565.946  79.7%     -    0s
H    0     0                    140811.07636 140565.946  0.17%     -    0s
H    0     0                    140586.99375 140565.946  0.01%     -    0s
H    0     0                    140578.51368 140565.946  0.01%     -    0s

Explored 1 nodes (1283 simplex iterations) in 0.05 seconds
Thread count was 4 (of 4 available processors)

Solution count 4: 140579 140587 140811 692024 

Optimal solution found (tolerance 1.00e-04)
Best objective 1.405785136773e+05, best bound 1.405659459499e+05, gap 0.0089%

Gurobi 8.1.1 (mac64, Python) logging started Mon Sep  9 14:50:28 2019

Academic license - for non-commercial use only
Optimize a model with 1260 rows, 4800 columns and 8334 nonzeros
Model has 9900 quadratic objective terms
Variable types: 1800 continuous, 3000 integer (0 binary)
Coefficient statistics:
  Matrix range     [1e+00, 1e+00]
  Objective range  [6e+00, 6e+02]
  QObjective range [2e+00, 4e+00]
  Bounds range     [0e+00, 0e+00]
  RHS range        [0e+00, 0e+00]
Found heuristic solution: objective 692024.39462
Presolve removed 188 rows and 2120 columns
Presolve time: 0.01s
Presolved: 1072 rows, 2680 columns, 5321 nonzeros
Presolved model has 7421 quadratic objective terms
Variable types: 119 continuous, 2561 integer (0 binary)

Root relaxation: objective 1.405659e+05, 1283 iterations, 0.02 seconds

    Nodes    |    Current Node    |     Objective Bounds      |     Work
 Expl Unexpl |  Obj  Depth IntInf | Incumbent    BestBd   Gap | It/Node Time

     0     0 140565.946    0  150 692024.395 140565.946  79.7%     -    0s
H    0     0                    140811.07636 140565.946  0.17%     -    0s
H    0     0                    140586.99375 140565.946  0.01%     -    0s
H    0     0                    140578.51368 140565.946  0.01%     -    0s

Explored 1 nodes (1283 simplex iterations) in 0.05 seconds
Thread count was 4 (of 4 available processors)

Solution count 4: 140579 140587 140811 692024 

Optimal solution found (tolerance 1.00e-04)
Best objective 1.405785136773e+05, best bound 1.405659459499e+05, gap 0.0089%

Gurobi 8.1.1 (mac64, Python) logging started Tue Oct  1 16:06:35 2019

Academic license - for non-commercial use only
Optimize a model with 1260 rows, 4800 columns and 8334 nonzeros
Model has 1800 quadratic objective terms
Variable types: 1800 continuous, 3000 integer (0 binary)
Coefficient statistics:
  Matrix range     [1e+00, 1e+00]
  Objective range  [2e+00, 2e+02]
  QObjective range [2e+00, 2e+00]
  Bounds range     [0e+00, 0e+00]
  RHS range        [0e+00, 0e+00]
Found heuristic solution: objective 45992.000000
Presolve removed 188 rows and 2239 columns
Presolve time: 0.02s
Presolved: 1072 rows, 2561 columns, 5321 nonzeros
Presolved model has 1260 quadratic objective terms
Variable types: 0 continuous, 2561 integer (0 binary)

Root relaxation: objective 1.291332e+04, 982 iterations, 0.01 seconds

    Nodes    |    Current Node    |     Objective Bounds      |     Work
 Expl Unexpl |  Obj  Depth IntInf | Incumbent    BestBd   Gap | It/Node Time

     0     0 12913.3221    0  586 45992.0000 12913.3221  71.9%     -    0s
H    0     0                    13115.000000 12913.3221  1.54%     -    0s
H    0     0                    12999.000000 12913.3221  0.66%     -    0s
     0     0 12913.3221    0  586 12999.0000 12913.3221  0.66%     -    0s
     0     2 12913.3221    0  586 12999.0000 12913.3221  0.66%     -    0s
H   30    29                    12996.000000 12915.1583  0.62%   3.2    0s
H   63    64                    12995.000000 12915.1583  0.61%   4.1    0s
H   63    64                    12993.000000 12915.1583  0.60%   4.1    0s
H   63    64                    12984.000000 12915.1583  0.53%   4.1    0s
H   63    64                    12981.000000 12915.1583  0.51%   4.1    0s
H   63    64                    12979.000000 12915.1583  0.49%   4.1    0s
H   64    65                    12977.000000 12915.1583  0.48%   4.1    0s
H  161   161                    12975.000000 12915.1583  0.46%   4.5    0s
H  229   206                    12974.000000 12915.2188  0.45%   3.9    1s
  1601   988 12923.7900   37  499 12974.0000 12915.5191  0.45%   4.5    5s
  4980  3100 12927.7863   26  525 12974.0000 12919.0730  0.42%   4.4   10s
  7981  5414 12946.2392   52  393 12974.0000 12922.2613  0.40%   4.4   15s
 12901  9100 12924.5730   37  502 12974.0000 12924.1569  0.38%   4.5   20s
 15594 11128 12968.6034   88  261 12974.0000 12925.0443  0.38%   4.4   25s
 20946 15061 12948.0379   39  441 12974.0000 12926.2574  0.37%   4.4   31s
 24831 18023 12962.1634   74  312 12974.0000 12926.9098  0.36%   4.4   35s
 30120 21942 12946.1137   59  379 12974.0000 12927.6845  0.36%   4.4   40s
 34878 25486 12945.4770   39  467 12974.0000 12928.1805  0.35%   4.4   45s
 39659 28951     cutoff   82      12974.0000 12928.5968  0.35%   4.4   50s
 43929 31943 12970.6724   91  222 12974.0000 12928.9102  0.35%   4.4   55s
 48219 35105 12971.9279   90  207 12974.0000 12929.2982  0.34%   4.4   60s
 52017 37870 12935.4123   53  430 12974.0000 12929.5086  0.34%   4.4   65s
 57236 41576 12957.3333   40  416 12974.0000 12929.8224  0.34%   4.4   70s
 61487 44726 12939.4854   55  443 12974.0000 12930.0637  0.34%   4.4   75s
 65714 47752 12945.5611   41  449 12974.0000 12930.2782  0.34%   4.4   80s
 69972 50823 12944.4199   56  394 12974.0000 12930.4475  0.34%   4.4   85s

Explored 73582 nodes (324243 simplex iterations) in 88.12 seconds
Thread count was 4 (of 4 available processors)

Solution count 10: 12974 12975 12977 ... 12999

Solve interrupted
Best objective 1.297400000000e+04, best bound 1.293100000000e+04, gap 0.3314%

Gurobi 8.1.1 (mac64, Python) logging started Tue Oct  1 16:08:25 2019

Academic license - for non-commercial use only
Optimize a model with 1260 rows, 4800 columns and 8334 nonzeros
Model has 1800 quadratic objective terms
Coefficient statistics:
  Matrix range     [1e+00, 1e+00]
  Objective range  [2e+00, 2e+02]
  QObjective range [2e+00, 2e+00]
  Bounds range     [0e+00, 0e+00]
  RHS range        [0e+00, 0e+00]
Presolve removed 188 rows and 2239 columns
Presolve time: 0.01s
Presolved: 1072 rows, 2561 columns, 6136 nonzeros
Presolved model has 1260 quadratic objective terms
Ordering time: 0.00s

Barrier statistics:
 AA' NZ     : 4.308e+03
 Factor NZ  : 1.149e+04 (roughly 2 MBytes of memory)
 Factor Ops : 1.861e+05 (less than 1 second per iteration)
 Threads    : 1

                  Objective                Residual
Iter       Primal          Dual         Primal    Dual     Compl     Time
   0   3.13445992e+08 -3.14954008e+08  4.20e+04 0.00e+00  9.99e+05     0s
   1   1.46473491e+08 -1.47801182e+08  2.36e+03 0.00e+00  1.53e+05     0s
   2   2.68704214e+07 -2.75064773e+07  2.36e-03 0.00e+00  2.12e+04     0s
   3   3.87543691e+06 -4.08710564e+06  2.36e-09 0.00e+00  3.11e+03     0s
   4   5.56771901e+05 -6.04989187e+05  2.98e-13 1.14e-13  4.54e+02     0s
   5   8.82479970e+04 -7.76326232e+04  9.95e-14 4.97e-14  6.48e+01     0s
   6   2.88016945e+04 -9.06992010e+03  4.26e-14 2.84e-14  1.48e+01     0s
   7   1.54737865e+04  9.96139184e+03  4.26e-14 1.42e-14  2.15e+00     0s
   8   1.33912169e+04  1.22499232e+04  1.56e-13 1.07e-14  4.46e-01     0s
   9   1.30223832e+04  1.27616091e+04  7.11e-14 8.88e-15  1.02e-01     0s
  10   1.29274080e+04  1.28967995e+04  8.88e-14 1.24e-14  1.20e-02     0s
  11   1.29151451e+04  1.29114493e+04  9.21e-14 9.06e-15  1.44e-03     0s
  12   1.29135760e+04  1.29130606e+04  1.96e-13 1.07e-14  2.01e-04     0s
  13   1.29133582e+04  1.29132847e+04  1.36e-13 1.42e-14  2.87e-05     0s
  14   1.29133273e+04  1.29133167e+04  9.30e-14 8.04e-15  4.12e-06     0s
  15   1.29133228e+04  1.29133213e+04  5.68e-14 1.07e-14  5.90e-07     0s
  16   1.29133222e+04  1.29133220e+04  7.82e-14 8.10e-15  8.47e-08     0s
  17   1.29133221e+04  1.29133221e+04  7.46e-14 1.42e-14  1.21e-08     0s
  18   1.29133221e+04  1.29133221e+04  7.54e-14 1.42e-14  1.74e-09     0s

Barrier solved model in 18 iterations and 0.04 seconds
Optimal objective 1.29133221e+04

Optimize a model with 1260 rows, 4800 columns and 8334 nonzeros
Model has 1800 quadratic objective terms
Coefficient statistics:
  Matrix range     [1e+00, 1e+00]
  Objective range  [2e+00, 2e+02]
  QObjective range [2e+00, 2e+00]
  Bounds range     [0e+00, 0e+00]
  RHS range        [0e+00, 0e+00]
Presolve removed 188 rows and 2239 columns
Presolve time: 0.01s
Presolved: 1072 rows, 2561 columns, 6136 nonzeros
Presolved model has 1260 quadratic objective terms
Ordering time: 0.00s

Barrier statistics:
 AA' NZ     : 4.308e+03
 Factor NZ  : 1.149e+04 (roughly 2 MBytes of memory)
 Factor Ops : 1.861e+05 (less than 1 second per iteration)
 Threads    : 1

                  Objective                Residual
Iter       Primal          Dual         Primal    Dual     Compl     Time
   0   3.13445992e+08 -3.14954008e+08  4.20e+04 0.00e+00  9.99e+05     0s
   1   1.46473491e+08 -1.47801182e+08  2.36e+03 0.00e+00  1.53e+05     0s
   2   2.68704214e+07 -2.75064773e+07  2.36e-03 0.00e+00  2.12e+04     0s
   3   3.87543691e+06 -4.08710564e+06  2.36e-09 0.00e+00  3.11e+03     0s
   4   5.56771901e+05 -6.04989187e+05  2.98e-13 1.14e-13  4.54e+02     0s
   5   8.82479970e+04 -7.76326232e+04  9.95e-14 4.97e-14  6.48e+01     0s
   6   2.88016945e+04 -9.06992010e+03  4.26e-14 2.84e-14  1.48e+01     0s
   7   1.54737865e+04  9.96139184e+03  4.26e-14 1.42e-14  2.15e+00     0s
   8   1.33912169e+04  1.22499232e+04  1.56e-13 1.07e-14  4.46e-01     0s
   9   1.30223832e+04  1.27616091e+04  7.11e-14 8.88e-15  1.02e-01     0s
  10   1.29274080e+04  1.28967995e+04  8.88e-14 1.24e-14  1.20e-02     0s
  11   1.29151451e+04  1.29114493e+04  9.21e-14 9.06e-15  1.44e-03     0s
  12   1.29135760e+04  1.29130606e+04  1.96e-13 1.07e-14  2.01e-04     0s
  13   1.29133582e+04  1.29132847e+04  1.36e-13 1.42e-14  2.87e-05     0s
  14   1.29133273e+04  1.29133167e+04  9.30e-14 8.04e-15  4.12e-06     0s
  15   1.29133228e+04  1.29133213e+04  5.68e-14 1.07e-14  5.90e-07     0s
  16   1.29133222e+04  1.29133220e+04  7.82e-14 8.10e-15  8.47e-08     0s
  17   1.29133221e+04  1.29133221e+04  7.46e-14 1.42e-14  1.21e-08     0s
  18   1.29133221e+04  1.29133221e+04  7.54e-14 1.42e-14  1.74e-09     0s

Barrier solved model in 18 iterations and 0.03 seconds
Optimal objective 1.29133221e+04


Gurobi 8.1.1 (mac64, Python) logging started Sat Feb 22 12:03:14 2020

Academic license - for non-commercial use only
